* #variable= 976 #constraint= 1209 
+1 x57 = 1 ;
+1 x58 = 0 ;
+1 x59 = 0 ;
+1 x60 = 0 ;
+1 x61 = 0 ;
+1 x62 = 0 ;
+1 x63 = 0 ;
+1 x64 = 0 ;
+1 x65 = 0 ;
+1 x66 = 0 ;
+1 x67 = 0 ;
+2 x80 +1 x68 -1 x46 -1 x57 = 0 ;
+2 x81 +1 x69 -1 x47 -1 x80 -1 x58 = 0 ;
+2 x82 +1 x70 -1 x48 -1 x81 -1 x59 = 0 ;
+2 x83 +1 x71 -1 x49 -1 x82 -1 x60 = 0 ;
+2 x84 +1 x72 -1 x50 -1 x83 -1 x61 = 0 ;
+2 x85 +1 x73 -1 x51 -1 x84 -1 x62 = 0 ;
+2 x86 +1 x74 -1 x52 -1 x85 -1 x63 = 0 ;
+2 x87 +1 x75 -1 x53 -1 x86 -1 x64 = 0 ;
+2 x88 +1 x76 -1 x54 -1 x87 -1 x65 = 0 ;
+2 x89 +1 x77 -1 x55 -1 x88 -1 x66 = 0 ;
+2 x90 +1 x78 -1 x56 -1 x89 -1 x67 = 0 ;
+1 x90 -1 x79 = 0 ;
+2 x91 +1 x954 -1 x932 -1 x1 = 0 ;
+2 x92 +1 x955 -1 x933 -1 x91 -1 x2 = 0 ;
+2 x93 +1 x956 -1 x934 -1 x92 -1 x3 = 0 ;
+2 x94 +1 x957 -1 x935 -1 x93 -1 x4 = 0 ;
+2 x95 +1 x958 -1 x936 -1 x94 -1 x5 = 0 ;
+2 x96 +1 x959 -1 x937 -1 x95 -1 x6 = 0 ;
+2 x97 +1 x960 -1 x938 -1 x96 -1 x7 = 0 ;
+2 x98 +1 x961 -1 x939 -1 x97 -1 x8 = 0 ;
+2 x99 +1 x962 -1 x940 -1 x98 -1 x9 = 0 ;
+2 x100 +1 x963 -1 x941 -1 x99 -1 x10 = 0 ;
+2 x101 +1 x964 -1 x942 -1 x100 -1 x11 = 0 ;
+2 x102 +1 x965 -1 x943 -1 x101 -1 x12 = 0 ;
+2 x103 +1 x966 -1 x944 -1 x102 -1 x13 = 0 ;
+2 x104 +1 x967 -1 x945 -1 x103 -1 x14 = 0 ;
+2 x105 +1 x968 -1 x946 -1 x104 -1 x15 = 0 ;
+2 x106 +1 x969 -1 x947 -1 x105 -1 x16 = 0 ;
+2 x107 +1 x970 -1 x948 -1 x106 -1 x17 = 0 ;
+2 x108 +1 x971 -1 x949 -1 x107 -1 x18 = 0 ;
+2 x109 +1 x972 -1 x950 -1 x108 -1 x19 = 0 ;
+2 x110 +1 x973 -1 x951 -1 x109 -1 x20 = 0 ;
+2 x111 +1 x974 -1 x952 -1 x110 -1 x21 = 0 ;
+2 x112 +1 x975 -1 x953 -1 x111 -1 x22 = 0 ;
+1 x112 -1 x976 = 0 ;
+1 x12 = 0 ;
+1 x13 = 0 ;
+1 x14 = 0 ;
+1 x15 = 0 ;
+1 x16 = 0 ;
+1 x17 = 0 ;
+1 x18 = 0 ;
+1 x19 = 0 ;
+1 x20 = 0 ;
+1 x21 = 0 ;
+1 x22 = 0 ;
+1 x45 = 0 ;
+1 x34 -1 x1 >= 0 ;
+1 x34 -1 x23 >= 0 ;
-1 x34 +1 x1 +1 x23 >= 0 ;
+1 x23 = 0 ;
+1 x35 -1 x2 >= 0 ;
+1 x35 -1 x24 >= 0 ;
-1 x35 +1 x2 +1 x24 >= 0 ;
+1 x24 = 1 ;
+1 x36 -1 x3 >= 0 ;
+1 x36 -1 x25 >= 0 ;
-1 x36 +1 x3 +1 x25 >= 0 ;
+1 x25 = 0 ;
+1 x37 -1 x4 >= 0 ;
+1 x37 -1 x26 >= 0 ;
-1 x37 +1 x4 +1 x26 >= 0 ;
+1 x26 = 1 ;
+1 x38 -1 x5 >= 0 ;
+1 x38 -1 x27 >= 0 ;
-1 x38 +1 x5 +1 x27 >= 0 ;
+1 x27 = 0 ;
+1 x39 -1 x6 >= 0 ;
+1 x39 -1 x28 >= 0 ;
-1 x39 +1 x6 +1 x28 >= 0 ;
+1 x28 = 1 ;
+1 x40 -1 x7 >= 0 ;
+1 x40 -1 x29 >= 0 ;
-1 x40 +1 x7 +1 x29 >= 0 ;
+1 x29 = 0 ;
+1 x41 -1 x8 >= 0 ;
+1 x41 -1 x30 >= 0 ;
-1 x41 +1 x8 +1 x30 >= 0 ;
+1 x30 = 1 ;
+1 x42 -1 x9 >= 0 ;
+1 x42 -1 x31 >= 0 ;
-1 x42 +1 x9 +1 x31 >= 0 ;
+1 x31 = 0 ;
+1 x43 -1 x10 >= 0 ;
+1 x43 -1 x32 >= 0 ;
-1 x43 +1 x10 +1 x32 >= 0 ;
+1 x32 = 1 ;
+1 x44 -1 x11 >= 0 ;
+1 x44 -1 x33 >= 0 ;
-1 x44 +1 x11 +1 x33 >= 0 ;
+1 x33 = 0 ;
-1 x113 +1 x34 >= 0 ;
-1 x113 +1 x68 >= 0 ;
+1 x113 -1 x34 -1 x68 >= -1 ;
+1 x401 -1 x113 = 0 ;
+1 x401 -1 x545 = 0 ;
-1 x569 +1 x23 >= 0 ;
-1 x569 +1 x46 >= 0 ;
+1 x569 -1 x23 -1 x46 >= -1 ;
+1 x811 -1 x569 = 0 ;
+1 x811 -1 x932 = 0 ;
+1 x954 -1 x545 +2 x955 -2 x546 +4 x956 -4 x547 +8 x957 -8 x548 +16 x958 -16 x549 +32 x959 -32 x550 +64 x960 -64 x551 +128 x961 -128 x552 +256 x962 -256 x553 +512 x963 -512 x554 +1024 x964 -1024 x555 +2048 x965 -2048 x556 +4096 x966 -4096 x557 +8192 x967 -8192 x558 +16384 x968 -16384 x559 +32768 x969 -32768 x560 +65536 x970 -65536 x561 +131072 x971 -131072 x562 +262144 x972 -262144 x563 +524288 x973 -524288 x564 +1048576 x974 -1048576 x565 +2097152 x975 -2097152 x566 +4194304 x976 -4194304 x567 >= 1 ;
-1 x125 +1 x35 >= 0 ;
-1 x125 +1 x68 >= 0 ;
+1 x125 -1 x35 -1 x68 >= -1 ;
-1 x114 +1 x34 >= 0 ;
-1 x114 +1 x69 >= 0 ;
+1 x114 -1 x34 -1 x69 >= -1 ;
+1 x413 -1 x125 = 0 ;
+2 x258 +1 x402 -1 x114 -1 x413 = 0 ;
+1 x402 -1 x546 = 0 ;
-1 x580 +1 x24 >= 0 ;
-1 x580 +1 x46 >= 0 ;
+1 x580 -1 x24 -1 x46 >= -1 ;
-1 x570 +1 x23 >= 0 ;
-1 x570 +1 x47 >= 0 ;
+1 x570 -1 x23 -1 x47 >= -1 ;
+1 x822 -1 x580 = 0 ;
+2 x691 +1 x812 -1 x570 -1 x822 = 0 ;
+1 x812 -1 x933 = 0 ;
-1 x137 +1 x36 >= 0 ;
-1 x137 +1 x68 >= 0 ;
+1 x137 -1 x36 -1 x68 >= -1 ;
-1 x126 +1 x35 >= 0 ;
-1 x126 +1 x69 >= 0 ;
+1 x126 -1 x35 -1 x69 >= -1 ;
-1 x115 +1 x34 >= 0 ;
-1 x115 +1 x70 >= 0 ;
+1 x115 -1 x34 -1 x70 >= -1 ;
+1 x425 -1 x137 = 0 ;
+2 x270 +1 x414 -1 x126 -1 x258 -1 x425 = 0 ;
+2 x259 +1 x403 -1 x115 -1 x414 = 0 ;
+1 x403 -1 x547 = 0 ;
-1 x591 +1 x25 >= 0 ;
-1 x591 +1 x46 >= 0 ;
+1 x591 -1 x25 -1 x46 >= -1 ;
-1 x581 +1 x24 >= 0 ;
-1 x581 +1 x47 >= 0 ;
+1 x581 -1 x24 -1 x47 >= -1 ;
-1 x571 +1 x23 >= 0 ;
-1 x571 +1 x48 >= 0 ;
+1 x571 -1 x23 -1 x48 >= -1 ;
+1 x833 -1 x591 = 0 ;
+2 x702 +1 x823 -1 x581 -1 x691 -1 x833 = 0 ;
+2 x692 +1 x813 -1 x571 -1 x823 = 0 ;
+1 x813 -1 x934 = 0 ;
-1 x149 +1 x37 >= 0 ;
-1 x149 +1 x68 >= 0 ;
+1 x149 -1 x37 -1 x68 >= -1 ;
-1 x138 +1 x36 >= 0 ;
-1 x138 +1 x69 >= 0 ;
+1 x138 -1 x36 -1 x69 >= -1 ;
-1 x127 +1 x35 >= 0 ;
-1 x127 +1 x70 >= 0 ;
+1 x127 -1 x35 -1 x70 >= -1 ;
-1 x116 +1 x34 >= 0 ;
-1 x116 +1 x71 >= 0 ;
+1 x116 -1 x34 -1 x71 >= -1 ;
+1 x437 -1 x149 = 0 ;
+2 x282 +1 x426 -1 x138 -1 x270 -1 x437 = 0 ;
+2 x271 +1 x415 -1 x127 -1 x259 -1 x426 = 0 ;
+2 x260 +1 x404 -1 x116 -1 x415 = 0 ;
+1 x404 -1 x548 = 0 ;
-1 x602 +1 x26 >= 0 ;
-1 x602 +1 x46 >= 0 ;
+1 x602 -1 x26 -1 x46 >= -1 ;
-1 x592 +1 x25 >= 0 ;
-1 x592 +1 x47 >= 0 ;
+1 x592 -1 x25 -1 x47 >= -1 ;
-1 x582 +1 x24 >= 0 ;
-1 x582 +1 x48 >= 0 ;
+1 x582 -1 x24 -1 x48 >= -1 ;
-1 x572 +1 x23 >= 0 ;
-1 x572 +1 x49 >= 0 ;
+1 x572 -1 x23 -1 x49 >= -1 ;
+1 x844 -1 x602 = 0 ;
+2 x713 +1 x834 -1 x592 -1 x702 -1 x844 = 0 ;
+2 x703 +1 x824 -1 x582 -1 x692 -1 x834 = 0 ;
+2 x693 +1 x814 -1 x572 -1 x824 = 0 ;
+1 x814 -1 x935 = 0 ;
-1 x161 +1 x38 >= 0 ;
-1 x161 +1 x68 >= 0 ;
+1 x161 -1 x38 -1 x68 >= -1 ;
-1 x150 +1 x37 >= 0 ;
-1 x150 +1 x69 >= 0 ;
+1 x150 -1 x37 -1 x69 >= -1 ;
-1 x139 +1 x36 >= 0 ;
-1 x139 +1 x70 >= 0 ;
+1 x139 -1 x36 -1 x70 >= -1 ;
-1 x128 +1 x35 >= 0 ;
-1 x128 +1 x71 >= 0 ;
+1 x128 -1 x35 -1 x71 >= -1 ;
-1 x117 +1 x34 >= 0 ;
-1 x117 +1 x72 >= 0 ;
+1 x117 -1 x34 -1 x72 >= -1 ;
+1 x449 -1 x161 = 0 ;
+2 x294 +1 x438 -1 x150 -1 x282 -1 x449 = 0 ;
+2 x283 +1 x427 -1 x139 -1 x271 -1 x438 = 0 ;
+2 x272 +1 x416 -1 x128 -1 x260 -1 x427 = 0 ;
+2 x261 +1 x405 -1 x117 -1 x416 = 0 ;
+1 x405 -1 x549 = 0 ;
-1 x613 +1 x27 >= 0 ;
-1 x613 +1 x46 >= 0 ;
+1 x613 -1 x27 -1 x46 >= -1 ;
-1 x603 +1 x26 >= 0 ;
-1 x603 +1 x47 >= 0 ;
+1 x603 -1 x26 -1 x47 >= -1 ;
-1 x593 +1 x25 >= 0 ;
-1 x593 +1 x48 >= 0 ;
+1 x593 -1 x25 -1 x48 >= -1 ;
-1 x583 +1 x24 >= 0 ;
-1 x583 +1 x49 >= 0 ;
+1 x583 -1 x24 -1 x49 >= -1 ;
-1 x573 +1 x23 >= 0 ;
-1 x573 +1 x50 >= 0 ;
+1 x573 -1 x23 -1 x50 >= -1 ;
+1 x855 -1 x613 = 0 ;
+2 x724 +1 x845 -1 x603 -1 x713 -1 x855 = 0 ;
+2 x714 +1 x835 -1 x593 -1 x703 -1 x845 = 0 ;
+2 x704 +1 x825 -1 x583 -1 x693 -1 x835 = 0 ;
+2 x694 +1 x815 -1 x573 -1 x825 = 0 ;
+1 x815 -1 x936 = 0 ;
-1 x173 +1 x39 >= 0 ;
-1 x173 +1 x68 >= 0 ;
+1 x173 -1 x39 -1 x68 >= -1 ;
-1 x162 +1 x38 >= 0 ;
-1 x162 +1 x69 >= 0 ;
+1 x162 -1 x38 -1 x69 >= -1 ;
-1 x151 +1 x37 >= 0 ;
-1 x151 +1 x70 >= 0 ;
+1 x151 -1 x37 -1 x70 >= -1 ;
-1 x140 +1 x36 >= 0 ;
-1 x140 +1 x71 >= 0 ;
+1 x140 -1 x36 -1 x71 >= -1 ;
-1 x129 +1 x35 >= 0 ;
-1 x129 +1 x72 >= 0 ;
+1 x129 -1 x35 -1 x72 >= -1 ;
-1 x118 +1 x34 >= 0 ;
-1 x118 +1 x73 >= 0 ;
+1 x118 -1 x34 -1 x73 >= -1 ;
+1 x461 -1 x173 = 0 ;
+2 x306 +1 x450 -1 x162 -1 x294 -1 x461 = 0 ;
+2 x295 +1 x439 -1 x151 -1 x283 -1 x450 = 0 ;
+2 x284 +1 x428 -1 x140 -1 x272 -1 x439 = 0 ;
+2 x273 +1 x417 -1 x129 -1 x261 -1 x428 = 0 ;
+2 x262 +1 x406 -1 x118 -1 x417 = 0 ;
+1 x406 -1 x550 = 0 ;
-1 x624 +1 x28 >= 0 ;
-1 x624 +1 x46 >= 0 ;
+1 x624 -1 x28 -1 x46 >= -1 ;
-1 x614 +1 x27 >= 0 ;
-1 x614 +1 x47 >= 0 ;
+1 x614 -1 x27 -1 x47 >= -1 ;
-1 x604 +1 x26 >= 0 ;
-1 x604 +1 x48 >= 0 ;
+1 x604 -1 x26 -1 x48 >= -1 ;
-1 x594 +1 x25 >= 0 ;
-1 x594 +1 x49 >= 0 ;
+1 x594 -1 x25 -1 x49 >= -1 ;
-1 x584 +1 x24 >= 0 ;
-1 x584 +1 x50 >= 0 ;
+1 x584 -1 x24 -1 x50 >= -1 ;
-1 x574 +1 x23 >= 0 ;
-1 x574 +1 x51 >= 0 ;
+1 x574 -1 x23 -1 x51 >= -1 ;
+1 x866 -1 x624 = 0 ;
+2 x735 +1 x856 -1 x614 -1 x724 -1 x866 = 0 ;
+2 x725 +1 x846 -1 x604 -1 x714 -1 x856 = 0 ;
+2 x715 +1 x836 -1 x594 -1 x704 -1 x846 = 0 ;
+2 x705 +1 x826 -1 x584 -1 x694 -1 x836 = 0 ;
+2 x695 +1 x816 -1 x574 -1 x826 = 0 ;
+1 x816 -1 x937 = 0 ;
-1 x185 +1 x40 >= 0 ;
-1 x185 +1 x68 >= 0 ;
+1 x185 -1 x40 -1 x68 >= -1 ;
-1 x174 +1 x39 >= 0 ;
-1 x174 +1 x69 >= 0 ;
+1 x174 -1 x39 -1 x69 >= -1 ;
-1 x163 +1 x38 >= 0 ;
-1 x163 +1 x70 >= 0 ;
+1 x163 -1 x38 -1 x70 >= -1 ;
-1 x152 +1 x37 >= 0 ;
-1 x152 +1 x71 >= 0 ;
+1 x152 -1 x37 -1 x71 >= -1 ;
-1 x141 +1 x36 >= 0 ;
-1 x141 +1 x72 >= 0 ;
+1 x141 -1 x36 -1 x72 >= -1 ;
-1 x130 +1 x35 >= 0 ;
-1 x130 +1 x73 >= 0 ;
+1 x130 -1 x35 -1 x73 >= -1 ;
-1 x119 +1 x34 >= 0 ;
-1 x119 +1 x74 >= 0 ;
+1 x119 -1 x34 -1 x74 >= -1 ;
+1 x473 -1 x185 = 0 ;
+2 x318 +1 x462 -1 x174 -1 x306 -1 x473 = 0 ;
+2 x307 +1 x451 -1 x163 -1 x295 -1 x462 = 0 ;
+2 x296 +1 x440 -1 x152 -1 x284 -1 x451 = 0 ;
+2 x285 +1 x429 -1 x141 -1 x273 -1 x440 = 0 ;
+2 x274 +1 x418 -1 x130 -1 x262 -1 x429 = 0 ;
+2 x263 +1 x407 -1 x119 -1 x418 = 0 ;
+1 x407 -1 x551 = 0 ;
-1 x635 +1 x29 >= 0 ;
-1 x635 +1 x46 >= 0 ;
+1 x635 -1 x29 -1 x46 >= -1 ;
-1 x625 +1 x28 >= 0 ;
-1 x625 +1 x47 >= 0 ;
+1 x625 -1 x28 -1 x47 >= -1 ;
-1 x615 +1 x27 >= 0 ;
-1 x615 +1 x48 >= 0 ;
+1 x615 -1 x27 -1 x48 >= -1 ;
-1 x605 +1 x26 >= 0 ;
-1 x605 +1 x49 >= 0 ;
+1 x605 -1 x26 -1 x49 >= -1 ;
-1 x595 +1 x25 >= 0 ;
-1 x595 +1 x50 >= 0 ;
+1 x595 -1 x25 -1 x50 >= -1 ;
-1 x585 +1 x24 >= 0 ;
-1 x585 +1 x51 >= 0 ;
+1 x585 -1 x24 -1 x51 >= -1 ;
-1 x575 +1 x23 >= 0 ;
-1 x575 +1 x52 >= 0 ;
+1 x575 -1 x23 -1 x52 >= -1 ;
+1 x877 -1 x635 = 0 ;
+2 x746 +1 x867 -1 x625 -1 x735 -1 x877 = 0 ;
+2 x736 +1 x857 -1 x615 -1 x725 -1 x867 = 0 ;
+2 x726 +1 x847 -1 x605 -1 x715 -1 x857 = 0 ;
+2 x716 +1 x837 -1 x595 -1 x705 -1 x847 = 0 ;
+2 x706 +1 x827 -1 x585 -1 x695 -1 x837 = 0 ;
+2 x696 +1 x817 -1 x575 -1 x827 = 0 ;
+1 x817 -1 x938 = 0 ;
-1 x197 +1 x41 >= 0 ;
-1 x197 +1 x68 >= 0 ;
+1 x197 -1 x41 -1 x68 >= -1 ;
-1 x186 +1 x40 >= 0 ;
-1 x186 +1 x69 >= 0 ;
+1 x186 -1 x40 -1 x69 >= -1 ;
-1 x175 +1 x39 >= 0 ;
-1 x175 +1 x70 >= 0 ;
+1 x175 -1 x39 -1 x70 >= -1 ;
-1 x164 +1 x38 >= 0 ;
-1 x164 +1 x71 >= 0 ;
+1 x164 -1 x38 -1 x71 >= -1 ;
-1 x153 +1 x37 >= 0 ;
-1 x153 +1 x72 >= 0 ;
+1 x153 -1 x37 -1 x72 >= -1 ;
-1 x142 +1 x36 >= 0 ;
-1 x142 +1 x73 >= 0 ;
+1 x142 -1 x36 -1 x73 >= -1 ;
-1 x131 +1 x35 >= 0 ;
-1 x131 +1 x74 >= 0 ;
+1 x131 -1 x35 -1 x74 >= -1 ;
-1 x120 +1 x34 >= 0 ;
-1 x120 +1 x75 >= 0 ;
+1 x120 -1 x34 -1 x75 >= -1 ;
+1 x485 -1 x197 = 0 ;
+2 x330 +1 x474 -1 x186 -1 x318 -1 x485 = 0 ;
+2 x319 +1 x463 -1 x175 -1 x307 -1 x474 = 0 ;
+2 x308 +1 x452 -1 x164 -1 x296 -1 x463 = 0 ;
+2 x297 +1 x441 -1 x153 -1 x285 -1 x452 = 0 ;
+2 x286 +1 x430 -1 x142 -1 x274 -1 x441 = 0 ;
+2 x275 +1 x419 -1 x131 -1 x263 -1 x430 = 0 ;
+2 x264 +1 x408 -1 x120 -1 x419 = 0 ;
+1 x408 -1 x552 = 0 ;
-1 x646 +1 x30 >= 0 ;
-1 x646 +1 x46 >= 0 ;
+1 x646 -1 x30 -1 x46 >= -1 ;
-1 x636 +1 x29 >= 0 ;
-1 x636 +1 x47 >= 0 ;
+1 x636 -1 x29 -1 x47 >= -1 ;
-1 x626 +1 x28 >= 0 ;
-1 x626 +1 x48 >= 0 ;
+1 x626 -1 x28 -1 x48 >= -1 ;
-1 x616 +1 x27 >= 0 ;
-1 x616 +1 x49 >= 0 ;
+1 x616 -1 x27 -1 x49 >= -1 ;
-1 x606 +1 x26 >= 0 ;
-1 x606 +1 x50 >= 0 ;
+1 x606 -1 x26 -1 x50 >= -1 ;
-1 x596 +1 x25 >= 0 ;
-1 x596 +1 x51 >= 0 ;
+1 x596 -1 x25 -1 x51 >= -1 ;
-1 x586 +1 x24 >= 0 ;
-1 x586 +1 x52 >= 0 ;
+1 x586 -1 x24 -1 x52 >= -1 ;
-1 x576 +1 x23 >= 0 ;
-1 x576 +1 x53 >= 0 ;
+1 x576 -1 x23 -1 x53 >= -1 ;
+1 x888 -1 x646 = 0 ;
+2 x757 +1 x878 -1 x636 -1 x746 -1 x888 = 0 ;
+2 x747 +1 x868 -1 x626 -1 x736 -1 x878 = 0 ;
+2 x737 +1 x858 -1 x616 -1 x726 -1 x868 = 0 ;
+2 x727 +1 x848 -1 x606 -1 x716 -1 x858 = 0 ;
+2 x717 +1 x838 -1 x596 -1 x706 -1 x848 = 0 ;
+2 x707 +1 x828 -1 x586 -1 x696 -1 x838 = 0 ;
+2 x697 +1 x818 -1 x576 -1 x828 = 0 ;
+1 x818 -1 x939 = 0 ;
-1 x209 +1 x42 >= 0 ;
-1 x209 +1 x68 >= 0 ;
+1 x209 -1 x42 -1 x68 >= -1 ;
-1 x198 +1 x41 >= 0 ;
-1 x198 +1 x69 >= 0 ;
+1 x198 -1 x41 -1 x69 >= -1 ;
-1 x187 +1 x40 >= 0 ;
-1 x187 +1 x70 >= 0 ;
+1 x187 -1 x40 -1 x70 >= -1 ;
-1 x176 +1 x39 >= 0 ;
-1 x176 +1 x71 >= 0 ;
+1 x176 -1 x39 -1 x71 >= -1 ;
-1 x165 +1 x38 >= 0 ;
-1 x165 +1 x72 >= 0 ;
+1 x165 -1 x38 -1 x72 >= -1 ;
-1 x154 +1 x37 >= 0 ;
-1 x154 +1 x73 >= 0 ;
+1 x154 -1 x37 -1 x73 >= -1 ;
-1 x143 +1 x36 >= 0 ;
-1 x143 +1 x74 >= 0 ;
+1 x143 -1 x36 -1 x74 >= -1 ;
-1 x132 +1 x35 >= 0 ;
-1 x132 +1 x75 >= 0 ;
+1 x132 -1 x35 -1 x75 >= -1 ;
-1 x121 +1 x34 >= 0 ;
-1 x121 +1 x76 >= 0 ;
+1 x121 -1 x34 -1 x76 >= -1 ;
+1 x497 -1 x209 = 0 ;
+2 x342 +1 x486 -1 x198 -1 x330 -1 x497 = 0 ;
+2 x331 +1 x475 -1 x187 -1 x319 -1 x486 = 0 ;
+2 x320 +1 x464 -1 x176 -1 x308 -1 x475 = 0 ;
+2 x309 +1 x453 -1 x165 -1 x297 -1 x464 = 0 ;
+2 x298 +1 x442 -1 x154 -1 x286 -1 x453 = 0 ;
+2 x287 +1 x431 -1 x143 -1 x275 -1 x442 = 0 ;
+2 x276 +1 x420 -1 x132 -1 x264 -1 x431 = 0 ;
+2 x265 +1 x409 -1 x121 -1 x420 = 0 ;
+1 x409 -1 x553 = 0 ;
-1 x657 +1 x31 >= 0 ;
-1 x657 +1 x46 >= 0 ;
+1 x657 -1 x31 -1 x46 >= -1 ;
-1 x647 +1 x30 >= 0 ;
-1 x647 +1 x47 >= 0 ;
+1 x647 -1 x30 -1 x47 >= -1 ;
-1 x637 +1 x29 >= 0 ;
-1 x637 +1 x48 >= 0 ;
+1 x637 -1 x29 -1 x48 >= -1 ;
-1 x627 +1 x28 >= 0 ;
-1 x627 +1 x49 >= 0 ;
+1 x627 -1 x28 -1 x49 >= -1 ;
-1 x617 +1 x27 >= 0 ;
-1 x617 +1 x50 >= 0 ;
+1 x617 -1 x27 -1 x50 >= -1 ;
-1 x607 +1 x26 >= 0 ;
-1 x607 +1 x51 >= 0 ;
+1 x607 -1 x26 -1 x51 >= -1 ;
-1 x597 +1 x25 >= 0 ;
-1 x597 +1 x52 >= 0 ;
+1 x597 -1 x25 -1 x52 >= -1 ;
-1 x587 +1 x24 >= 0 ;
-1 x587 +1 x53 >= 0 ;
+1 x587 -1 x24 -1 x53 >= -1 ;
-1 x577 +1 x23 >= 0 ;
-1 x577 +1 x54 >= 0 ;
+1 x577 -1 x23 -1 x54 >= -1 ;
+1 x899 -1 x657 = 0 ;
+2 x768 +1 x889 -1 x647 -1 x757 -1 x899 = 0 ;
+2 x758 +1 x879 -1 x637 -1 x747 -1 x889 = 0 ;
+2 x748 +1 x869 -1 x627 -1 x737 -1 x879 = 0 ;
+2 x738 +1 x859 -1 x617 -1 x727 -1 x869 = 0 ;
+2 x728 +1 x849 -1 x607 -1 x717 -1 x859 = 0 ;
+2 x718 +1 x839 -1 x597 -1 x707 -1 x849 = 0 ;
+2 x708 +1 x829 -1 x587 -1 x697 -1 x839 = 0 ;
+2 x698 +1 x819 -1 x577 -1 x829 = 0 ;
+1 x819 -1 x940 = 0 ;
-1 x221 +1 x43 >= 0 ;
-1 x221 +1 x68 >= 0 ;
+1 x221 -1 x43 -1 x68 >= -1 ;
-1 x210 +1 x42 >= 0 ;
-1 x210 +1 x69 >= 0 ;
+1 x210 -1 x42 -1 x69 >= -1 ;
-1 x199 +1 x41 >= 0 ;
-1 x199 +1 x70 >= 0 ;
+1 x199 -1 x41 -1 x70 >= -1 ;
-1 x188 +1 x40 >= 0 ;
-1 x188 +1 x71 >= 0 ;
+1 x188 -1 x40 -1 x71 >= -1 ;
-1 x177 +1 x39 >= 0 ;
-1 x177 +1 x72 >= 0 ;
+1 x177 -1 x39 -1 x72 >= -1 ;
-1 x166 +1 x38 >= 0 ;
-1 x166 +1 x73 >= 0 ;
+1 x166 -1 x38 -1 x73 >= -1 ;
-1 x155 +1 x37 >= 0 ;
-1 x155 +1 x74 >= 0 ;
+1 x155 -1 x37 -1 x74 >= -1 ;
-1 x144 +1 x36 >= 0 ;
-1 x144 +1 x75 >= 0 ;
+1 x144 -1 x36 -1 x75 >= -1 ;
-1 x133 +1 x35 >= 0 ;
-1 x133 +1 x76 >= 0 ;
+1 x133 -1 x35 -1 x76 >= -1 ;
-1 x122 +1 x34 >= 0 ;
-1 x122 +1 x77 >= 0 ;
+1 x122 -1 x34 -1 x77 >= -1 ;
+1 x509 -1 x221 = 0 ;
+2 x354 +1 x498 -1 x210 -1 x342 -1 x509 = 0 ;
+2 x343 +1 x487 -1 x199 -1 x331 -1 x498 = 0 ;
+2 x332 +1 x476 -1 x188 -1 x320 -1 x487 = 0 ;
+2 x321 +1 x465 -1 x177 -1 x309 -1 x476 = 0 ;
+2 x310 +1 x454 -1 x166 -1 x298 -1 x465 = 0 ;
+2 x299 +1 x443 -1 x155 -1 x287 -1 x454 = 0 ;
+2 x288 +1 x432 -1 x144 -1 x276 -1 x443 = 0 ;
+2 x277 +1 x421 -1 x133 -1 x265 -1 x432 = 0 ;
+2 x266 +1 x410 -1 x122 -1 x421 = 0 ;
+1 x410 -1 x554 = 0 ;
-1 x668 +1 x32 >= 0 ;
-1 x668 +1 x46 >= 0 ;
+1 x668 -1 x32 -1 x46 >= -1 ;
-1 x658 +1 x31 >= 0 ;
-1 x658 +1 x47 >= 0 ;
+1 x658 -1 x31 -1 x47 >= -1 ;
-1 x648 +1 x30 >= 0 ;
-1 x648 +1 x48 >= 0 ;
+1 x648 -1 x30 -1 x48 >= -1 ;
-1 x638 +1 x29 >= 0 ;
-1 x638 +1 x49 >= 0 ;
+1 x638 -1 x29 -1 x49 >= -1 ;
-1 x628 +1 x28 >= 0 ;
-1 x628 +1 x50 >= 0 ;
+1 x628 -1 x28 -1 x50 >= -1 ;
-1 x618 +1 x27 >= 0 ;
-1 x618 +1 x51 >= 0 ;
+1 x618 -1 x27 -1 x51 >= -1 ;
-1 x608 +1 x26 >= 0 ;
-1 x608 +1 x52 >= 0 ;
+1 x608 -1 x26 -1 x52 >= -1 ;
-1 x598 +1 x25 >= 0 ;
-1 x598 +1 x53 >= 0 ;
+1 x598 -1 x25 -1 x53 >= -1 ;
-1 x588 +1 x24 >= 0 ;
-1 x588 +1 x54 >= 0 ;
+1 x588 -1 x24 -1 x54 >= -1 ;
-1 x578 +1 x23 >= 0 ;
-1 x578 +1 x55 >= 0 ;
+1 x578 -1 x23 -1 x55 >= -1 ;
+1 x910 -1 x668 = 0 ;
+2 x779 +1 x900 -1 x658 -1 x768 -1 x910 = 0 ;
+2 x769 +1 x890 -1 x648 -1 x758 -1 x900 = 0 ;
+2 x759 +1 x880 -1 x638 -1 x748 -1 x890 = 0 ;
+2 x749 +1 x870 -1 x628 -1 x738 -1 x880 = 0 ;
+2 x739 +1 x860 -1 x618 -1 x728 -1 x870 = 0 ;
+2 x729 +1 x850 -1 x608 -1 x718 -1 x860 = 0 ;
+2 x719 +1 x840 -1 x598 -1 x708 -1 x850 = 0 ;
+2 x709 +1 x830 -1 x588 -1 x698 -1 x840 = 0 ;
+2 x699 +1 x820 -1 x578 -1 x830 = 0 ;
+1 x820 -1 x941 = 0 ;
-1 x233 +1 x44 >= 0 ;
-1 x233 +1 x68 >= 0 ;
+1 x233 -1 x44 -1 x68 >= -1 ;
-1 x222 +1 x43 >= 0 ;
-1 x222 +1 x69 >= 0 ;
+1 x222 -1 x43 -1 x69 >= -1 ;
-1 x211 +1 x42 >= 0 ;
-1 x211 +1 x70 >= 0 ;
+1 x211 -1 x42 -1 x70 >= -1 ;
-1 x200 +1 x41 >= 0 ;
-1 x200 +1 x71 >= 0 ;
+1 x200 -1 x41 -1 x71 >= -1 ;
-1 x189 +1 x40 >= 0 ;
-1 x189 +1 x72 >= 0 ;
+1 x189 -1 x40 -1 x72 >= -1 ;
-1 x178 +1 x39 >= 0 ;
-1 x178 +1 x73 >= 0 ;
+1 x178 -1 x39 -1 x73 >= -1 ;
-1 x167 +1 x38 >= 0 ;
-1 x167 +1 x74 >= 0 ;
+1 x167 -1 x38 -1 x74 >= -1 ;
-1 x156 +1 x37 >= 0 ;
-1 x156 +1 x75 >= 0 ;
+1 x156 -1 x37 -1 x75 >= -1 ;
-1 x145 +1 x36 >= 0 ;
-1 x145 +1 x76 >= 0 ;
+1 x145 -1 x36 -1 x76 >= -1 ;
-1 x134 +1 x35 >= 0 ;
-1 x134 +1 x77 >= 0 ;
+1 x134 -1 x35 -1 x77 >= -1 ;
-1 x123 +1 x34 >= 0 ;
-1 x123 +1 x78 >= 0 ;
+1 x123 -1 x34 -1 x78 >= -1 ;
+1 x521 -1 x233 = 0 ;
+2 x366 +1 x510 -1 x222 -1 x354 -1 x521 = 0 ;
+2 x355 +1 x499 -1 x211 -1 x343 -1 x510 = 0 ;
+2 x344 +1 x488 -1 x200 -1 x332 -1 x499 = 0 ;
+2 x333 +1 x477 -1 x189 -1 x321 -1 x488 = 0 ;
+2 x322 +1 x466 -1 x178 -1 x310 -1 x477 = 0 ;
+2 x311 +1 x455 -1 x167 -1 x299 -1 x466 = 0 ;
+2 x300 +1 x444 -1 x156 -1 x288 -1 x455 = 0 ;
+2 x289 +1 x433 -1 x145 -1 x277 -1 x444 = 0 ;
+2 x278 +1 x422 -1 x134 -1 x266 -1 x433 = 0 ;
+2 x267 +1 x411 -1 x123 -1 x422 = 0 ;
+1 x411 -1 x555 = 0 ;
-1 x679 +1 x33 >= 0 ;
-1 x679 +1 x46 >= 0 ;
+1 x679 -1 x33 -1 x46 >= -1 ;
-1 x669 +1 x32 >= 0 ;
-1 x669 +1 x47 >= 0 ;
+1 x669 -1 x32 -1 x47 >= -1 ;
-1 x659 +1 x31 >= 0 ;
-1 x659 +1 x48 >= 0 ;
+1 x659 -1 x31 -1 x48 >= -1 ;
-1 x649 +1 x30 >= 0 ;
-1 x649 +1 x49 >= 0 ;
+1 x649 -1 x30 -1 x49 >= -1 ;
-1 x639 +1 x29 >= 0 ;
-1 x639 +1 x50 >= 0 ;
+1 x639 -1 x29 -1 x50 >= -1 ;
-1 x629 +1 x28 >= 0 ;
-1 x629 +1 x51 >= 0 ;
+1 x629 -1 x28 -1 x51 >= -1 ;
-1 x619 +1 x27 >= 0 ;
-1 x619 +1 x52 >= 0 ;
+1 x619 -1 x27 -1 x52 >= -1 ;
-1 x609 +1 x26 >= 0 ;
-1 x609 +1 x53 >= 0 ;
+1 x609 -1 x26 -1 x53 >= -1 ;
-1 x599 +1 x25 >= 0 ;
-1 x599 +1 x54 >= 0 ;
+1 x599 -1 x25 -1 x54 >= -1 ;
-1 x589 +1 x24 >= 0 ;
-1 x589 +1 x55 >= 0 ;
+1 x589 -1 x24 -1 x55 >= -1 ;
-1 x579 +1 x23 >= 0 ;
-1 x579 +1 x56 >= 0 ;
+1 x579 -1 x23 -1 x56 >= -1 ;
+1 x921 -1 x679 = 0 ;
+2 x790 +1 x911 -1 x669 -1 x779 -1 x921 = 0 ;
+2 x780 +1 x901 -1 x659 -1 x769 -1 x911 = 0 ;
+2 x770 +1 x891 -1 x649 -1 x759 -1 x901 = 0 ;
+2 x760 +1 x881 -1 x639 -1 x749 -1 x891 = 0 ;
+2 x750 +1 x871 -1 x629 -1 x739 -1 x881 = 0 ;
+2 x740 +1 x861 -1 x619 -1 x729 -1 x871 = 0 ;
+2 x730 +1 x851 -1 x609 -1 x719 -1 x861 = 0 ;
+2 x720 +1 x841 -1 x599 -1 x709 -1 x851 = 0 ;
+2 x710 +1 x831 -1 x589 -1 x699 -1 x841 = 0 ;
+2 x700 +1 x821 -1 x579 -1 x831 = 0 ;
+1 x821 -1 x942 = 0 ;
-1 x245 +1 x45 >= 0 ;
-1 x245 +1 x68 >= 0 ;
+1 x245 -1 x45 -1 x68 >= -1 ;
-1 x234 +1 x44 >= 0 ;
-1 x234 +1 x69 >= 0 ;
+1 x234 -1 x44 -1 x69 >= -1 ;
-1 x223 +1 x43 >= 0 ;
-1 x223 +1 x70 >= 0 ;
+1 x223 -1 x43 -1 x70 >= -1 ;
-1 x212 +1 x42 >= 0 ;
-1 x212 +1 x71 >= 0 ;
+1 x212 -1 x42 -1 x71 >= -1 ;
-1 x201 +1 x41 >= 0 ;
-1 x201 +1 x72 >= 0 ;
+1 x201 -1 x41 -1 x72 >= -1 ;
-1 x190 +1 x40 >= 0 ;
-1 x190 +1 x73 >= 0 ;
+1 x190 -1 x40 -1 x73 >= -1 ;
-1 x179 +1 x39 >= 0 ;
-1 x179 +1 x74 >= 0 ;
+1 x179 -1 x39 -1 x74 >= -1 ;
-1 x168 +1 x38 >= 0 ;
-1 x168 +1 x75 >= 0 ;
+1 x168 -1 x38 -1 x75 >= -1 ;
-1 x157 +1 x37 >= 0 ;
-1 x157 +1 x76 >= 0 ;
+1 x157 -1 x37 -1 x76 >= -1 ;
-1 x146 +1 x36 >= 0 ;
-1 x146 +1 x77 >= 0 ;
+1 x146 -1 x36 -1 x77 >= -1 ;
-1 x135 +1 x35 >= 0 ;
-1 x135 +1 x78 >= 0 ;
+1 x135 -1 x35 -1 x78 >= -1 ;
-1 x124 +1 x34 >= 0 ;
-1 x124 +1 x79 >= 0 ;
+1 x124 -1 x34 -1 x79 >= -1 ;
+1 x533 -1 x245 = 0 ;
+2 x378 +1 x522 -1 x234 -1 x366 -1 x533 = 0 ;
+2 x367 +1 x511 -1 x223 -1 x355 -1 x522 = 0 ;
+2 x356 +1 x500 -1 x212 -1 x344 -1 x511 = 0 ;
+2 x345 +1 x489 -1 x201 -1 x333 -1 x500 = 0 ;
+2 x334 +1 x478 -1 x190 -1 x322 -1 x489 = 0 ;
+2 x323 +1 x467 -1 x179 -1 x311 -1 x478 = 0 ;
+2 x312 +1 x456 -1 x168 -1 x300 -1 x467 = 0 ;
+2 x301 +1 x445 -1 x157 -1 x289 -1 x456 = 0 ;
+2 x290 +1 x434 -1 x146 -1 x278 -1 x445 = 0 ;
+2 x279 +1 x423 -1 x135 -1 x267 -1 x434 = 0 ;
+2 x268 +1 x412 -1 x124 -1 x423 = 0 ;
+1 x412 -1 x556 = 0 ;
-1 x680 +1 x33 >= 0 ;
-1 x680 +1 x47 >= 0 ;
+1 x680 -1 x33 -1 x47 >= -1 ;
-1 x670 +1 x32 >= 0 ;
-1 x670 +1 x48 >= 0 ;
+1 x670 -1 x32 -1 x48 >= -1 ;
-1 x660 +1 x31 >= 0 ;
-1 x660 +1 x49 >= 0 ;
+1 x660 -1 x31 -1 x49 >= -1 ;
-1 x650 +1 x30 >= 0 ;
-1 x650 +1 x50 >= 0 ;
+1 x650 -1 x30 -1 x50 >= -1 ;
-1 x640 +1 x29 >= 0 ;
-1 x640 +1 x51 >= 0 ;
+1 x640 -1 x29 -1 x51 >= -1 ;
-1 x630 +1 x28 >= 0 ;
-1 x630 +1 x52 >= 0 ;
+1 x630 -1 x28 -1 x52 >= -1 ;
-1 x620 +1 x27 >= 0 ;
-1 x620 +1 x53 >= 0 ;
+1 x620 -1 x27 -1 x53 >= -1 ;
-1 x610 +1 x26 >= 0 ;
-1 x610 +1 x54 >= 0 ;
+1 x610 -1 x26 -1 x54 >= -1 ;
-1 x600 +1 x25 >= 0 ;
-1 x600 +1 x55 >= 0 ;
+1 x600 -1 x25 -1 x55 >= -1 ;
-1 x590 +1 x24 >= 0 ;
-1 x590 +1 x56 >= 0 ;
+1 x590 -1 x24 -1 x56 >= -1 ;
+2 x801 +1 x922 -1 x680 -1 x790 = 0 ;
+2 x791 +1 x912 -1 x670 -1 x780 -1 x922 = 0 ;
+2 x781 +1 x902 -1 x660 -1 x770 -1 x912 = 0 ;
+2 x771 +1 x892 -1 x650 -1 x760 -1 x902 = 0 ;
+2 x761 +1 x882 -1 x640 -1 x750 -1 x892 = 0 ;
+2 x751 +1 x872 -1 x630 -1 x740 -1 x882 = 0 ;
+2 x741 +1 x862 -1 x620 -1 x730 -1 x872 = 0 ;
+2 x731 +1 x852 -1 x610 -1 x720 -1 x862 = 0 ;
+2 x721 +1 x842 -1 x600 -1 x710 -1 x852 = 0 ;
+2 x711 +1 x832 -1 x590 -1 x700 -1 x842 = 0 ;
+1 x832 -1 x943 = 0 ;
-1 x246 +1 x45 >= 0 ;
-1 x246 +1 x69 >= 0 ;
+1 x246 -1 x45 -1 x69 >= -1 ;
-1 x235 +1 x44 >= 0 ;
-1 x235 +1 x70 >= 0 ;
+1 x235 -1 x44 -1 x70 >= -1 ;
-1 x224 +1 x43 >= 0 ;
-1 x224 +1 x71 >= 0 ;
+1 x224 -1 x43 -1 x71 >= -1 ;
-1 x213 +1 x42 >= 0 ;
-1 x213 +1 x72 >= 0 ;
+1 x213 -1 x42 -1 x72 >= -1 ;
-1 x202 +1 x41 >= 0 ;
-1 x202 +1 x73 >= 0 ;
+1 x202 -1 x41 -1 x73 >= -1 ;
-1 x191 +1 x40 >= 0 ;
-1 x191 +1 x74 >= 0 ;
+1 x191 -1 x40 -1 x74 >= -1 ;
-1 x180 +1 x39 >= 0 ;
-1 x180 +1 x75 >= 0 ;
+1 x180 -1 x39 -1 x75 >= -1 ;
-1 x169 +1 x38 >= 0 ;
-1 x169 +1 x76 >= 0 ;
+1 x169 -1 x38 -1 x76 >= -1 ;
-1 x158 +1 x37 >= 0 ;
-1 x158 +1 x77 >= 0 ;
+1 x158 -1 x37 -1 x77 >= -1 ;
-1 x147 +1 x36 >= 0 ;
-1 x147 +1 x78 >= 0 ;
+1 x147 -1 x36 -1 x78 >= -1 ;
-1 x136 +1 x35 >= 0 ;
-1 x136 +1 x79 >= 0 ;
+1 x136 -1 x35 -1 x79 >= -1 ;
+2 x390 +1 x534 -1 x246 -1 x378 = 0 ;
+2 x379 +1 x523 -1 x235 -1 x367 -1 x534 = 0 ;
+2 x368 +1 x512 -1 x224 -1 x356 -1 x523 = 0 ;
+2 x357 +1 x501 -1 x213 -1 x345 -1 x512 = 0 ;
+2 x346 +1 x490 -1 x202 -1 x334 -1 x501 = 0 ;
+2 x335 +1 x479 -1 x191 -1 x323 -1 x490 = 0 ;
+2 x324 +1 x468 -1 x180 -1 x312 -1 x479 = 0 ;
+2 x313 +1 x457 -1 x169 -1 x301 -1 x468 = 0 ;
+2 x302 +1 x446 -1 x158 -1 x290 -1 x457 = 0 ;
+2 x291 +1 x435 -1 x147 -1 x279 -1 x446 = 0 ;
+2 x280 +1 x424 -1 x136 -1 x268 -1 x435 = 0 ;
+1 x424 -1 x557 = 0 ;
-1 x681 +1 x33 >= 0 ;
-1 x681 +1 x48 >= 0 ;
+1 x681 -1 x33 -1 x48 >= -1 ;
-1 x671 +1 x32 >= 0 ;
-1 x671 +1 x49 >= 0 ;
+1 x671 -1 x32 -1 x49 >= -1 ;
-1 x661 +1 x31 >= 0 ;
-1 x661 +1 x50 >= 0 ;
+1 x661 -1 x31 -1 x50 >= -1 ;
-1 x651 +1 x30 >= 0 ;
-1 x651 +1 x51 >= 0 ;
+1 x651 -1 x30 -1 x51 >= -1 ;
-1 x641 +1 x29 >= 0 ;
-1 x641 +1 x52 >= 0 ;
+1 x641 -1 x29 -1 x52 >= -1 ;
-1 x631 +1 x28 >= 0 ;
-1 x631 +1 x53 >= 0 ;
+1 x631 -1 x28 -1 x53 >= -1 ;
-1 x621 +1 x27 >= 0 ;
-1 x621 +1 x54 >= 0 ;
+1 x621 -1 x27 -1 x54 >= -1 ;
-1 x611 +1 x26 >= 0 ;
-1 x611 +1 x55 >= 0 ;
+1 x611 -1 x26 -1 x55 >= -1 ;
-1 x601 +1 x25 >= 0 ;
-1 x601 +1 x56 >= 0 ;
+1 x601 -1 x25 -1 x56 >= -1 ;
+2 x802 +1 x923 -1 x681 -1 x791 -1 x801 = 0 ;
+2 x792 +1 x913 -1 x671 -1 x781 -1 x923 = 0 ;
+2 x782 +1 x903 -1 x661 -1 x771 -1 x913 = 0 ;
+2 x772 +1 x893 -1 x651 -1 x761 -1 x903 = 0 ;
+2 x762 +1 x883 -1 x641 -1 x751 -1 x893 = 0 ;
+2 x752 +1 x873 -1 x631 -1 x741 -1 x883 = 0 ;
+2 x742 +1 x863 -1 x621 -1 x731 -1 x873 = 0 ;
+2 x732 +1 x853 -1 x611 -1 x721 -1 x863 = 0 ;
+2 x722 +1 x843 -1 x601 -1 x711 -1 x853 = 0 ;
+1 x843 -1 x944 = 0 ;
-1 x247 +1 x45 >= 0 ;
-1 x247 +1 x70 >= 0 ;
+1 x247 -1 x45 -1 x70 >= -1 ;
-1 x236 +1 x44 >= 0 ;
-1 x236 +1 x71 >= 0 ;
+1 x236 -1 x44 -1 x71 >= -1 ;
-1 x225 +1 x43 >= 0 ;
-1 x225 +1 x72 >= 0 ;
+1 x225 -1 x43 -1 x72 >= -1 ;
-1 x214 +1 x42 >= 0 ;
-1 x214 +1 x73 >= 0 ;
+1 x214 -1 x42 -1 x73 >= -1 ;
-1 x203 +1 x41 >= 0 ;
-1 x203 +1 x74 >= 0 ;
+1 x203 -1 x41 -1 x74 >= -1 ;
-1 x192 +1 x40 >= 0 ;
-1 x192 +1 x75 >= 0 ;
+1 x192 -1 x40 -1 x75 >= -1 ;
-1 x181 +1 x39 >= 0 ;
-1 x181 +1 x76 >= 0 ;
+1 x181 -1 x39 -1 x76 >= -1 ;
-1 x170 +1 x38 >= 0 ;
-1 x170 +1 x77 >= 0 ;
+1 x170 -1 x38 -1 x77 >= -1 ;
-1 x159 +1 x37 >= 0 ;
-1 x159 +1 x78 >= 0 ;
+1 x159 -1 x37 -1 x78 >= -1 ;
-1 x148 +1 x36 >= 0 ;
-1 x148 +1 x79 >= 0 ;
+1 x148 -1 x36 -1 x79 >= -1 ;
+2 x391 +1 x535 -1 x247 -1 x379 -1 x390 = 0 ;
+2 x380 +1 x524 -1 x236 -1 x368 -1 x535 = 0 ;
+2 x369 +1 x513 -1 x225 -1 x357 -1 x524 = 0 ;
+2 x358 +1 x502 -1 x214 -1 x346 -1 x513 = 0 ;
+2 x347 +1 x491 -1 x203 -1 x335 -1 x502 = 0 ;
+2 x336 +1 x480 -1 x192 -1 x324 -1 x491 = 0 ;
+2 x325 +1 x469 -1 x181 -1 x313 -1 x480 = 0 ;
+2 x314 +1 x458 -1 x170 -1 x302 -1 x469 = 0 ;
+2 x303 +1 x447 -1 x159 -1 x291 -1 x458 = 0 ;
+2 x292 +1 x436 -1 x148 -1 x280 -1 x447 = 0 ;
+1 x436 -1 x558 = 0 ;
-1 x682 +1 x33 >= 0 ;
-1 x682 +1 x49 >= 0 ;
+1 x682 -1 x33 -1 x49 >= -1 ;
-1 x672 +1 x32 >= 0 ;
-1 x672 +1 x50 >= 0 ;
+1 x672 -1 x32 -1 x50 >= -1 ;
-1 x662 +1 x31 >= 0 ;
-1 x662 +1 x51 >= 0 ;
+1 x662 -1 x31 -1 x51 >= -1 ;
-1 x652 +1 x30 >= 0 ;
-1 x652 +1 x52 >= 0 ;
+1 x652 -1 x30 -1 x52 >= -1 ;
-1 x642 +1 x29 >= 0 ;
-1 x642 +1 x53 >= 0 ;
+1 x642 -1 x29 -1 x53 >= -1 ;
-1 x632 +1 x28 >= 0 ;
-1 x632 +1 x54 >= 0 ;
+1 x632 -1 x28 -1 x54 >= -1 ;
-1 x622 +1 x27 >= 0 ;
-1 x622 +1 x55 >= 0 ;
+1 x622 -1 x27 -1 x55 >= -1 ;
-1 x612 +1 x26 >= 0 ;
-1 x612 +1 x56 >= 0 ;
+1 x612 -1 x26 -1 x56 >= -1 ;
+2 x803 +1 x924 -1 x682 -1 x792 -1 x802 = 0 ;
+2 x793 +1 x914 -1 x672 -1 x782 -1 x924 = 0 ;
+2 x783 +1 x904 -1 x662 -1 x772 -1 x914 = 0 ;
+2 x773 +1 x894 -1 x652 -1 x762 -1 x904 = 0 ;
+2 x763 +1 x884 -1 x642 -1 x752 -1 x894 = 0 ;
+2 x753 +1 x874 -1 x632 -1 x742 -1 x884 = 0 ;
+2 x743 +1 x864 -1 x622 -1 x732 -1 x874 = 0 ;
+2 x733 +1 x854 -1 x612 -1 x722 -1 x864 = 0 ;
+1 x854 -1 x945 = 0 ;
-1 x248 +1 x45 >= 0 ;
-1 x248 +1 x71 >= 0 ;
+1 x248 -1 x45 -1 x71 >= -1 ;
-1 x237 +1 x44 >= 0 ;
-1 x237 +1 x72 >= 0 ;
+1 x237 -1 x44 -1 x72 >= -1 ;
-1 x226 +1 x43 >= 0 ;
-1 x226 +1 x73 >= 0 ;
+1 x226 -1 x43 -1 x73 >= -1 ;
-1 x215 +1 x42 >= 0 ;
-1 x215 +1 x74 >= 0 ;
+1 x215 -1 x42 -1 x74 >= -1 ;
-1 x204 +1 x41 >= 0 ;
-1 x204 +1 x75 >= 0 ;
+1 x204 -1 x41 -1 x75 >= -1 ;
-1 x193 +1 x40 >= 0 ;
-1 x193 +1 x76 >= 0 ;
+1 x193 -1 x40 -1 x76 >= -1 ;
-1 x182 +1 x39 >= 0 ;
-1 x182 +1 x77 >= 0 ;
+1 x182 -1 x39 -1 x77 >= -1 ;
-1 x171 +1 x38 >= 0 ;
-1 x171 +1 x78 >= 0 ;
+1 x171 -1 x38 -1 x78 >= -1 ;
-1 x160 +1 x37 >= 0 ;
-1 x160 +1 x79 >= 0 ;
+1 x160 -1 x37 -1 x79 >= -1 ;
+2 x392 +1 x536 -1 x248 -1 x380 -1 x391 = 0 ;
+2 x381 +1 x525 -1 x237 -1 x369 -1 x536 = 0 ;
+2 x370 +1 x514 -1 x226 -1 x358 -1 x525 = 0 ;
+2 x359 +1 x503 -1 x215 -1 x347 -1 x514 = 0 ;
+2 x348 +1 x492 -1 x204 -1 x336 -1 x503 = 0 ;
+2 x337 +1 x481 -1 x193 -1 x325 -1 x492 = 0 ;
+2 x326 +1 x470 -1 x182 -1 x314 -1 x481 = 0 ;
+2 x315 +1 x459 -1 x171 -1 x303 -1 x470 = 0 ;
+2 x304 +1 x448 -1 x160 -1 x292 -1 x459 = 0 ;
+1 x448 -1 x559 = 0 ;
-1 x683 +1 x33 >= 0 ;
-1 x683 +1 x50 >= 0 ;
+1 x683 -1 x33 -1 x50 >= -1 ;
-1 x673 +1 x32 >= 0 ;
-1 x673 +1 x51 >= 0 ;
+1 x673 -1 x32 -1 x51 >= -1 ;
-1 x663 +1 x31 >= 0 ;
-1 x663 +1 x52 >= 0 ;
+1 x663 -1 x31 -1 x52 >= -1 ;
-1 x653 +1 x30 >= 0 ;
-1 x653 +1 x53 >= 0 ;
+1 x653 -1 x30 -1 x53 >= -1 ;
-1 x643 +1 x29 >= 0 ;
-1 x643 +1 x54 >= 0 ;
+1 x643 -1 x29 -1 x54 >= -1 ;
-1 x633 +1 x28 >= 0 ;
-1 x633 +1 x55 >= 0 ;
+1 x633 -1 x28 -1 x55 >= -1 ;
-1 x623 +1 x27 >= 0 ;
-1 x623 +1 x56 >= 0 ;
+1 x623 -1 x27 -1 x56 >= -1 ;
+2 x804 +1 x925 -1 x683 -1 x793 -1 x803 = 0 ;
+2 x794 +1 x915 -1 x673 -1 x783 -1 x925 = 0 ;
+2 x784 +1 x905 -1 x663 -1 x773 -1 x915 = 0 ;
+2 x774 +1 x895 -1 x653 -1 x763 -1 x905 = 0 ;
+2 x764 +1 x885 -1 x643 -1 x753 -1 x895 = 0 ;
+2 x754 +1 x875 -1 x633 -1 x743 -1 x885 = 0 ;
+2 x744 +1 x865 -1 x623 -1 x733 -1 x875 = 0 ;
+1 x865 -1 x946 = 0 ;
-1 x249 +1 x45 >= 0 ;
-1 x249 +1 x72 >= 0 ;
+1 x249 -1 x45 -1 x72 >= -1 ;
-1 x238 +1 x44 >= 0 ;
-1 x238 +1 x73 >= 0 ;
+1 x238 -1 x44 -1 x73 >= -1 ;
-1 x227 +1 x43 >= 0 ;
-1 x227 +1 x74 >= 0 ;
+1 x227 -1 x43 -1 x74 >= -1 ;
-1 x216 +1 x42 >= 0 ;
-1 x216 +1 x75 >= 0 ;
+1 x216 -1 x42 -1 x75 >= -1 ;
-1 x205 +1 x41 >= 0 ;
-1 x205 +1 x76 >= 0 ;
+1 x205 -1 x41 -1 x76 >= -1 ;
-1 x194 +1 x40 >= 0 ;
-1 x194 +1 x77 >= 0 ;
+1 x194 -1 x40 -1 x77 >= -1 ;
-1 x183 +1 x39 >= 0 ;
-1 x183 +1 x78 >= 0 ;
+1 x183 -1 x39 -1 x78 >= -1 ;
-1 x172 +1 x38 >= 0 ;
-1 x172 +1 x79 >= 0 ;
+1 x172 -1 x38 -1 x79 >= -1 ;
+2 x393 +1 x537 -1 x249 -1 x381 -1 x392 = 0 ;
+2 x382 +1 x526 -1 x238 -1 x370 -1 x537 = 0 ;
+2 x371 +1 x515 -1 x227 -1 x359 -1 x526 = 0 ;
+2 x360 +1 x504 -1 x216 -1 x348 -1 x515 = 0 ;
+2 x349 +1 x493 -1 x205 -1 x337 -1 x504 = 0 ;
+2 x338 +1 x482 -1 x194 -1 x326 -1 x493 = 0 ;
+2 x327 +1 x471 -1 x183 -1 x315 -1 x482 = 0 ;
+2 x316 +1 x460 -1 x172 -1 x304 -1 x471 = 0 ;
+1 x460 -1 x560 = 0 ;
-1 x684 +1 x33 >= 0 ;
-1 x684 +1 x51 >= 0 ;
+1 x684 -1 x33 -1 x51 >= -1 ;
-1 x674 +1 x32 >= 0 ;
-1 x674 +1 x52 >= 0 ;
+1 x674 -1 x32 -1 x52 >= -1 ;
-1 x664 +1 x31 >= 0 ;
-1 x664 +1 x53 >= 0 ;
+1 x664 -1 x31 -1 x53 >= -1 ;
-1 x654 +1 x30 >= 0 ;
-1 x654 +1 x54 >= 0 ;
+1 x654 -1 x30 -1 x54 >= -1 ;
-1 x644 +1 x29 >= 0 ;
-1 x644 +1 x55 >= 0 ;
+1 x644 -1 x29 -1 x55 >= -1 ;
-1 x634 +1 x28 >= 0 ;
-1 x634 +1 x56 >= 0 ;
+1 x634 -1 x28 -1 x56 >= -1 ;
+2 x805 +1 x926 -1 x684 -1 x794 -1 x804 = 0 ;
+2 x795 +1 x916 -1 x674 -1 x784 -1 x926 = 0 ;
+2 x785 +1 x906 -1 x664 -1 x774 -1 x916 = 0 ;
+2 x775 +1 x896 -1 x654 -1 x764 -1 x906 = 0 ;
+2 x765 +1 x886 -1 x644 -1 x754 -1 x896 = 0 ;
+2 x755 +1 x876 -1 x634 -1 x744 -1 x886 = 0 ;
+1 x876 -1 x947 = 0 ;
-1 x250 +1 x45 >= 0 ;
-1 x250 +1 x73 >= 0 ;
+1 x250 -1 x45 -1 x73 >= -1 ;
-1 x239 +1 x44 >= 0 ;
-1 x239 +1 x74 >= 0 ;
+1 x239 -1 x44 -1 x74 >= -1 ;
-1 x228 +1 x43 >= 0 ;
-1 x228 +1 x75 >= 0 ;
+1 x228 -1 x43 -1 x75 >= -1 ;
-1 x217 +1 x42 >= 0 ;
-1 x217 +1 x76 >= 0 ;
+1 x217 -1 x42 -1 x76 >= -1 ;
-1 x206 +1 x41 >= 0 ;
-1 x206 +1 x77 >= 0 ;
+1 x206 -1 x41 -1 x77 >= -1 ;
-1 x195 +1 x40 >= 0 ;
-1 x195 +1 x78 >= 0 ;
+1 x195 -1 x40 -1 x78 >= -1 ;
-1 x184 +1 x39 >= 0 ;
-1 x184 +1 x79 >= 0 ;
+1 x184 -1 x39 -1 x79 >= -1 ;
+2 x394 +1 x538 -1 x250 -1 x382 -1 x393 = 0 ;
+2 x383 +1 x527 -1 x239 -1 x371 -1 x538 = 0 ;
+2 x372 +1 x516 -1 x228 -1 x360 -1 x527 = 0 ;
+2 x361 +1 x505 -1 x217 -1 x349 -1 x516 = 0 ;
+2 x350 +1 x494 -1 x206 -1 x338 -1 x505 = 0 ;
+2 x339 +1 x483 -1 x195 -1 x327 -1 x494 = 0 ;
+2 x328 +1 x472 -1 x184 -1 x316 -1 x483 = 0 ;
+1 x472 -1 x561 = 0 ;
-1 x685 +1 x33 >= 0 ;
-1 x685 +1 x52 >= 0 ;
+1 x685 -1 x33 -1 x52 >= -1 ;
-1 x675 +1 x32 >= 0 ;
-1 x675 +1 x53 >= 0 ;
+1 x675 -1 x32 -1 x53 >= -1 ;
-1 x665 +1 x31 >= 0 ;
-1 x665 +1 x54 >= 0 ;
+1 x665 -1 x31 -1 x54 >= -1 ;
-1 x655 +1 x30 >= 0 ;
-1 x655 +1 x55 >= 0 ;
+1 x655 -1 x30 -1 x55 >= -1 ;
-1 x645 +1 x29 >= 0 ;
-1 x645 +1 x56 >= 0 ;
+1 x645 -1 x29 -1 x56 >= -1 ;
+2 x806 +1 x927 -1 x685 -1 x795 -1 x805 = 0 ;
+2 x796 +1 x917 -1 x675 -1 x785 -1 x927 = 0 ;
+2 x786 +1 x907 -1 x665 -1 x775 -1 x917 = 0 ;
+2 x776 +1 x897 -1 x655 -1 x765 -1 x907 = 0 ;
+2 x766 +1 x887 -1 x645 -1 x755 -1 x897 = 0 ;
+1 x887 -1 x948 = 0 ;
-1 x251 +1 x45 >= 0 ;
-1 x251 +1 x74 >= 0 ;
+1 x251 -1 x45 -1 x74 >= -1 ;
-1 x240 +1 x44 >= 0 ;
-1 x240 +1 x75 >= 0 ;
+1 x240 -1 x44 -1 x75 >= -1 ;
-1 x229 +1 x43 >= 0 ;
-1 x229 +1 x76 >= 0 ;
+1 x229 -1 x43 -1 x76 >= -1 ;
-1 x218 +1 x42 >= 0 ;
-1 x218 +1 x77 >= 0 ;
+1 x218 -1 x42 -1 x77 >= -1 ;
-1 x207 +1 x41 >= 0 ;
-1 x207 +1 x78 >= 0 ;
+1 x207 -1 x41 -1 x78 >= -1 ;
-1 x196 +1 x40 >= 0 ;
-1 x196 +1 x79 >= 0 ;
+1 x196 -1 x40 -1 x79 >= -1 ;
+2 x395 +1 x539 -1 x251 -1 x383 -1 x394 = 0 ;
+2 x384 +1 x528 -1 x240 -1 x372 -1 x539 = 0 ;
+2 x373 +1 x517 -1 x229 -1 x361 -1 x528 = 0 ;
+2 x362 +1 x506 -1 x218 -1 x350 -1 x517 = 0 ;
+2 x351 +1 x495 -1 x207 -1 x339 -1 x506 = 0 ;
+2 x340 +1 x484 -1 x196 -1 x328 -1 x495 = 0 ;
+1 x484 -1 x562 = 0 ;
-1 x686 +1 x33 >= 0 ;
-1 x686 +1 x53 >= 0 ;
+1 x686 -1 x33 -1 x53 >= -1 ;
-1 x676 +1 x32 >= 0 ;
-1 x676 +1 x54 >= 0 ;
+1 x676 -1 x32 -1 x54 >= -1 ;
-1 x666 +1 x31 >= 0 ;
-1 x666 +1 x55 >= 0 ;
+1 x666 -1 x31 -1 x55 >= -1 ;
-1 x656 +1 x30 >= 0 ;
-1 x656 +1 x56 >= 0 ;
+1 x656 -1 x30 -1 x56 >= -1 ;
+2 x807 +1 x928 -1 x686 -1 x796 -1 x806 = 0 ;
+2 x797 +1 x918 -1 x676 -1 x786 -1 x928 = 0 ;
+2 x787 +1 x908 -1 x666 -1 x776 -1 x918 = 0 ;
+2 x777 +1 x898 -1 x656 -1 x766 -1 x908 = 0 ;
+1 x898 -1 x949 = 0 ;
-1 x252 +1 x45 >= 0 ;
-1 x252 +1 x75 >= 0 ;
+1 x252 -1 x45 -1 x75 >= -1 ;
-1 x241 +1 x44 >= 0 ;
-1 x241 +1 x76 >= 0 ;
+1 x241 -1 x44 -1 x76 >= -1 ;
-1 x230 +1 x43 >= 0 ;
-1 x230 +1 x77 >= 0 ;
+1 x230 -1 x43 -1 x77 >= -1 ;
-1 x219 +1 x42 >= 0 ;
-1 x219 +1 x78 >= 0 ;
+1 x219 -1 x42 -1 x78 >= -1 ;
-1 x208 +1 x41 >= 0 ;
-1 x208 +1 x79 >= 0 ;
+1 x208 -1 x41 -1 x79 >= -1 ;
+2 x396 +1 x540 -1 x252 -1 x384 -1 x395 = 0 ;
+2 x385 +1 x529 -1 x241 -1 x373 -1 x540 = 0 ;
+2 x374 +1 x518 -1 x230 -1 x362 -1 x529 = 0 ;
+2 x363 +1 x507 -1 x219 -1 x351 -1 x518 = 0 ;
+2 x352 +1 x496 -1 x208 -1 x340 -1 x507 = 0 ;
+1 x496 -1 x563 = 0 ;
-1 x687 +1 x33 >= 0 ;
-1 x687 +1 x54 >= 0 ;
+1 x687 -1 x33 -1 x54 >= -1 ;
-1 x677 +1 x32 >= 0 ;
-1 x677 +1 x55 >= 0 ;
+1 x677 -1 x32 -1 x55 >= -1 ;
-1 x667 +1 x31 >= 0 ;
-1 x667 +1 x56 >= 0 ;
+1 x667 -1 x31 -1 x56 >= -1 ;
+2 x808 +1 x929 -1 x687 -1 x797 -1 x807 = 0 ;
+2 x798 +1 x919 -1 x677 -1 x787 -1 x929 = 0 ;
+2 x788 +1 x909 -1 x667 -1 x777 -1 x919 = 0 ;
+1 x909 -1 x950 = 0 ;
-1 x253 +1 x45 >= 0 ;
-1 x253 +1 x76 >= 0 ;
+1 x253 -1 x45 -1 x76 >= -1 ;
-1 x242 +1 x44 >= 0 ;
-1 x242 +1 x77 >= 0 ;
+1 x242 -1 x44 -1 x77 >= -1 ;
-1 x231 +1 x43 >= 0 ;
-1 x231 +1 x78 >= 0 ;
+1 x231 -1 x43 -1 x78 >= -1 ;
-1 x220 +1 x42 >= 0 ;
-1 x220 +1 x79 >= 0 ;
+1 x220 -1 x42 -1 x79 >= -1 ;
+2 x397 +1 x541 -1 x253 -1 x385 -1 x396 = 0 ;
+2 x386 +1 x530 -1 x242 -1 x374 -1 x541 = 0 ;
+2 x375 +1 x519 -1 x231 -1 x363 -1 x530 = 0 ;
+2 x364 +1 x508 -1 x220 -1 x352 -1 x519 = 0 ;
+1 x508 -1 x564 = 0 ;
-1 x688 +1 x33 >= 0 ;
-1 x688 +1 x55 >= 0 ;
+1 x688 -1 x33 -1 x55 >= -1 ;
-1 x678 +1 x32 >= 0 ;
-1 x678 +1 x56 >= 0 ;
+1 x678 -1 x32 -1 x56 >= -1 ;
+2 x809 +1 x930 -1 x688 -1 x798 -1 x808 = 0 ;
+2 x799 +1 x920 -1 x678 -1 x788 -1 x930 = 0 ;
+1 x920 -1 x951 = 0 ;
-1 x254 +1 x45 >= 0 ;
-1 x254 +1 x77 >= 0 ;
+1 x254 -1 x45 -1 x77 >= -1 ;
-1 x243 +1 x44 >= 0 ;
-1 x243 +1 x78 >= 0 ;
+1 x243 -1 x44 -1 x78 >= -1 ;
-1 x232 +1 x43 >= 0 ;
-1 x232 +1 x79 >= 0 ;
+1 x232 -1 x43 -1 x79 >= -1 ;
+2 x398 +1 x542 -1 x254 -1 x386 -1 x397 = 0 ;
+2 x387 +1 x531 -1 x243 -1 x375 -1 x542 = 0 ;
+2 x376 +1 x520 -1 x232 -1 x364 -1 x531 = 0 ;
+1 x520 -1 x565 = 0 ;
-1 x689 +1 x33 >= 0 ;
-1 x689 +1 x56 >= 0 ;
+1 x689 -1 x33 -1 x56 >= -1 ;
+2 x810 +1 x931 -1 x689 -1 x799 -1 x809 = 0 ;
+1 x931 -1 x952 = 0 ;
-1 x255 +1 x45 >= 0 ;
-1 x255 +1 x78 >= 0 ;
+1 x255 -1 x45 -1 x78 >= -1 ;
-1 x244 +1 x44 >= 0 ;
-1 x244 +1 x79 >= 0 ;
+1 x244 -1 x44 -1 x79 >= -1 ;
+2 x399 +1 x543 -1 x255 -1 x387 -1 x398 = 0 ;
+2 x388 +1 x532 -1 x244 -1 x376 -1 x543 = 0 ;
+1 x532 -1 x566 = 0 ;
+1 x810 -1 x953 = 0 ;
-1 x256 +1 x45 >= 0 ;
-1 x256 +1 x79 >= 0 ;
+1 x256 -1 x45 -1 x79 >= -1 ;
+2 x400 +1 x544 -1 x256 -1 x388 -1 x399 = 0 ;
+1 x544 -1 x567 = 0 ;
+1 x400 -1 x568 = 0 ;
